RT is False
Default write of storage_offers_DA.csv just to have a file (but constraint should be inactive)
Reading model...
...model read.
creating competitive generators file...
...competitive generators recorded.
Loading data...
.. day-ahead data with real-time VRE data read.
Compiling instance...
...instance created.
Creating Offer Mitigation (model will solve as dispatch if TRUE)...
Solving...

Welcome to IBM(R) ILOG(R) CPLEX(R) Interactive Optimizer 12.9.0.0
  with Simplex, Mixed Integer & Barrier Optimizers
5725-A06 5725-A29 5724-Y48 5724-Y49 5724-Y54 5724-Y55 5655-Y21
Copyright IBM Corp. 1988, 2019.  All Rights Reserved.

Type 'help' for a list of available commands.
Type 'help' followed by a command name for more
information on commands.

CPLEX> Logfile 'cplex.log' closed.
Logfile 'C:\Users\llavin\Desktop\test826\logs\tmpc39tb41y.cplex.log' open.
CPLEX> New value for parallel optimization mode: -1
CPLEX> New value for emphasis for MIP optimization: 1
CPLEX> New value for mixed integer optimality gap tolerance: 0.01
CPLEX> New value for integrality tolerance: 1e-12
CPLEX> New value for deterministic time limit in ticks: 75000
CPLEX> Problem 'C:\Users\llavin\Desktop\test826\logs\tmp4ho2_kez.pyomo.lp' read.
Read time = 0.05 sec. (3.03 ticks)
CPLEX> Problem name         : C:\Users\llavin\Desktop\test826\logs\tmp4ho2_kez.pyomo.lp
Objective sense      : Minimize
Variables            :   26083  [Nneg: 1,  Box: 21618,  Free: 4464]
Objective nonzeros   :    2496
Linear constraints   :   27517  [Less: 14008,  Greater: 4418,  Equal: 9091]
  Nonzeros           :   89411
  RHS nonzeros       :   12275

Variables            : Min LB: -5000.000        Max UB: 1000000.       
Objective nonzeros   : Min   : 15.73158         Max   : 124.0997       
Linear constraints   :
  Nonzeros           : Min   : 0.8500000        Max   : 3000.000       
  RHS nonzeros       : Min   : 0.001000000      Max   : 5000.000       
CPLEX> CPXPARAM_Parallel                                -1
CPXPARAM_Emphasis_MIP                            1
CPXPARAM_DetTimeLimit                            75000
CPXPARAM_MIP_Tolerances_MIPGap                   0.01
CPXPARAM_MIP_Tolerances_Integrality              9.9999999999999998e-13
Parallel mode: opportunistic, using up to 32 threads for concurrent optimization.
Tried aggregator 1 time.
LP Presolve eliminated 21377 rows and 15513 columns.
Aggregator did 775 substitutions.
Reduced LP has 5365 rows, 9795 columns, and 31778 nonzeros.
Presolve time = 0.05 sec. (30.40 ticks)
Symmetry aggregator did 5512 additional substitutions.
Initializing dual steep norms . . .

Iteration log . . .
Iteration:     1   Dual objective     =             0.000000
Perturbation started.
Iteration:   101   Dual objective     =             0.000000
Iteration:   338   Dual objective     =            45.559574
Iteration:   544   Dual objective     =            55.382738
Iteration:   762   Dual objective     =            55.888343
Iteration:   940   Dual objective     =        195770.793617
Iteration:  1116   Dual objective     =        207792.401848
Removing perturbation.

Dual crossover.
  Dual:  Fixing 1 variable.
        0 DMoves:  Infeasibility  1.77635684e-14  Objective  2.07744618e+05
  Dual:  Pushed 0, exchanged 1.
  Primal:  Fixing 4 variables.
        3 PMoves:  Infeasibility  3.14685167e-09  Objective  2.07744618e+05
        0 PMoves:  Infeasibility  3.14685167e-09  Objective  2.07744618e+05
  Primal:  Pushed 4, exchanged 0.

Dual simplex solved model.


Dual simplex - Optimal:  Objective =  2.0774461800e+05
Solution time =    0.17 sec.  Iterations = 1320 (0)
Deterministic time = 78.13 ticks  (454.22 ticks/sec)

CPLEX> Solution written to file 'C:\Users\llavin\Desktop\test826\logs\tmp1j83jeui.cplex.sol'.
CPLEX> 